\* FanduelSelections *\
Maximize
OBJ: 18.1969131485 x0 + 23.767809404 x1 + 23.767809404 x10 + 24.833962943 x100
 + 22.8386018741 x101 + 25.6285263711 x102 + 23.767809404 x103
 + 22.8386018741 x104 + 23.767809404 x105 + 28.4584432256 x106
 + 22.8386018741 x107 + 25.6285263711 x108 + 24.833962943 x109
 + 24.833962943 x11 + 25.6285263711 x110 + 25.6285263711 x111
 + 24.833962943 x112 + 22.8386018741 x113 + 23.767809404 x114
 + 28.4584432256 x115 + 23.767809404 x116 + 22.8386018741 x117
 + 28.4584432256 x118 + 24.833962943 x119 + 25.6285263711 x12
 + 24.833962943 x120 + 24.833962943 x121 + 25.6285263711 x122
 + 22.8386018741 x123 + 22.8386018741 x124 + 22.8386018741 x125
 + 23.767809404 x126 + 23.767809404 x127 + 22.8386018741 x128
 + 28.4584432256 x129 + 28.4584432256 x13 + 28.4584432256 x130
 + 25.6285263711 x131 + 25.6285263711 x132 + 25.6285263711 x133
 + 25.6285263711 x134 + 25.6285263711 x135 + 28.4584432256 x136
 + 24.833962943 x14 + 25.6285263711 x15 + 25.6285263711 x16 + 24.833962943 x17
 + 22.8386018741 x18 + 24.833962943 x19 + 25.6285263711 x2 + 24.833962943 x20
 + 24.833962943 x21 + 28.4584432256 x22 + 28.4584432256 x23
 + 22.8386018741 x24 + 23.767809404 x25 + 25.6285263711 x26 + 24.833962943 x27
 + 23.767809404 x28 + 23.767809404 x29 + 25.6285263711 x3 + 28.4584432256 x30
 + 25.6285263711 x31 + 22.8386018741 x32 + 23.767809404 x33
 + 22.8386018741 x34 + 24.833962943 x35 + 23.767809404 x36 + 24.833962943 x37
 + 24.833962943 x38 + 23.767809404 x39 + 25.6285263711 x4 + 25.6285263711 x40
 + 25.6285263711 x41 + 24.833962943 x42 + 24.833962943 x43 + 22.8386018741 x44
 + 28.4584432256 x45 + 22.8386018741 x46 + 28.4584432256 x47
 + 24.833962943 x48 + 24.833962943 x49 + 28.4584432256 x5 + 28.4584432256 x50
 + 28.4584432256 x51 + 28.4584432256 x52 + 22.8386018741 x53
 + 24.833962943 x54 + 22.8386018741 x55 + 25.6285263711 x56 + 24.833962943 x57
 + 23.767809404 x58 + 25.6285263711 x59 + 24.833962943 x6 + 28.4584432256 x60
 + 22.8386018741 x61 + 22.8386018741 x62 + 23.767809404 x63
 + 22.8386018741 x64 + 22.8386018741 x65 + 23.767809404 x66 + 23.767809404 x67
 + 23.767809404 x68 + 23.767809404 x69 + 28.4584432256 x7 + 23.767809404 x70
 + 25.6285263711 x71 + 22.8386018741 x72 + 22.8386018741 x73
 + 22.8386018741 x74 + 24.833962943 x75 + 23.767809404 x76 + 25.6285263711 x77
 + 23.767809404 x78 + 22.8386018741 x79 + 28.4584432256 x8 + 28.4584432256 x80
 + 25.6285263711 x81 + 28.4584432256 x82 + 23.767809404 x83
 + 25.6285263711 x84 + 24.833962943 x85 + 25.6285263711 x86 + 23.767809404 x87
 + 25.6285263711 x88 + 24.833962943 x89 + 28.4584432256 x9 + 22.8386018741 x90
 + 25.6285263711 x91 + 25.6285263711 x92 + 22.8386018741 x93
 + 25.6285263711 x94 + 24.833962943 x95 + 22.8386018741 x96
 + 28.4584432256 x97 + 23.767809404 x98 + 22.8386018741 x99
Subject To
_C1: x0 + x1 + x10 + x100 + x101 + x102 + x103 + x104 + x105 + x106 + x107
 + x108 + x109 + x11 + x110 + x111 + x112 + x113 + x114 + x115 + x116 + x117
 + x118 + x119 + x12 + x120 + x121 + x122 + x123 + x124 + x125 + x126 + x127
 + x128 + x129 + x13 + x130 + x131 + x132 + x133 + x134 + x135 + x136 + x14
 + x15 + x16 + x17 + x18 + x19 + x2 + x20 + x21 + x22 + x23 + x24 + x25 + x26
 + x27 + x28 + x29 + x3 + x30 + x31 + x32 + x33 + x34 + x35 + x36 + x37 + x38
 + x39 + x4 + x40 + x41 + x42 + x43 + x44 + x45 + x46 + x47 + x48 + x49 + x5
 + x50 + x51 + x52 + x53 + x54 + x55 + x56 + x57 + x58 + x59 + x6 + x60 + x61
 + x62 + x63 + x64 + x65 + x66 + x67 + x68 + x69 + x7 + x70 + x71 + x72 + x73
 + x74 + x75 + x76 + x77 + x78 + x79 + x8 + x80 + x81 + x82 + x83 + x84 + x85
 + x86 + x87 + x88 + x89 + x9 + x90 + x91 + x92 + x93 + x94 + x95 + x96 + x97
 + x98 + x99 = 9
_C2: x0 + x102 + x108 + x110 + x111 + x12 + x122 + x131 + x132 + x133 + x134
 + x135 + x15 + x16 + x2 + x26 + x3 + x31 + x4 + x40 + x41 + x56 + x59 + x71
 + x77 + x81 + x84 + x86 + x88 + x91 + x92 + x94 = 2
_C3: x1 + x10 + x103 + x105 + x114 + x116 + x126 + x127 + x25 + x28 + x29
 + x33 + x36 + x39 + x58 + x63 + x66 + x67 + x68 + x69 + x70 + x76 + x78 + x83
 + x87 + x98 = 2
_C4: x101 + x104 + x107 + x113 + x117 + x123 + x124 + x125 + x128 + x18 + x24
 + x32 + x34 + x44 + x46 + x53 + x55 + x61 + x62 + x64 + x65 + x72 + x73 + x74
 + x79 + x90 + x93 + x96 + x99 = 2
_C5: x100 + x109 + x11 + x112 + x119 + x120 + x121 + x14 + x17 + x19 + x20
 + x21 + x27 + x35 + x37 + x38 + x42 + x43 + x48 + x49 + x54 + x57 + x6 + x75
 + x85 + x89 + x95 = 2
_C6: x106 + x115 + x118 + x129 + x13 + x130 + x136 + x22 + x23 + x30 + x45
 + x47 + x5 + x50 + x51 + x52 + x60 + x7 + x8 + x80 + x82 + x9 + x97 = 1
_C7: 3500 x0 + 6900 x1 + 3500 x10 + 5300 x100 + 3500 x101 + 3500 x102
 + 7800 x103 + 3700 x104 + 5000 x105 + 8500 x106 + 5300 x107 + 7600 x108
 + 5500 x109 + 3500 x11 + 4900 x110 + 3800 x111 + 3800 x112 + 3700 x113
 + 6000 x114 + 5900 x115 + 4300 x116 + 3500 x117 + 11300 x118 + 5500 x119
 + 9500 x12 + 5500 x120 + 7400 x121 + 4300 x122 + 4000 x123 + 6300 x124
 + 4300 x125 + 3500 x126 + 3800 x127 + 4700 x128 + 10900 x129 + 3700 x13
 + 7400 x130 + 10500 x131 + 3700 x132 + 4900 x133 + 7800 x134 + 3800 x135
 + 3600 x136 + 5400 x14 + 5700 x15 + 3500 x16 + 3700 x17 + 3600 x18 + 6000 x19
 + 3600 x2 + 5900 x20 + 3600 x21 + 5500 x22 + 4000 x23 + 3500 x24 + 5800 x25
 + 5300 x26 + 3500 x27 + 6000 x28 + 3500 x29 + 4800 x3 + 3700 x30 + 4900 x31
 + 3800 x32 + 5600 x33 + 4100 x34 + 3700 x35 + 3500 x36 + 3700 x37 + 4400 x38
 + 4500 x39 + 8400 x4 + 12100 x40 + 9500 x41 + 6100 x42 + 3500 x43 + 3800 x44
 + 3500 x45 + 4800 x46 + 6700 x47 + 4600 x48 + 4800 x49 + 3600 x5 + 4600 x50
 + 5600 x51 + 7200 x52 + 7300 x53 + 3500 x54 + 3700 x55 + 4100 x56 + 6900 x57
 + 3500 x58 + 4300 x59 + 3500 x6 + 3500 x60 + 4100 x61 + 6500 x62 + 6400 x63
 + 5100 x64 + 3600 x65 + 3800 x66 + 7800 x67 + 4300 x68 + 10800 x69 + 4000 x7
 + 5100 x70 + 4900 x71 + 6600 x72 + 3700 x73 + 4000 x74 + 5000 x75 + 5000 x76
 + 5200 x77 + 6000 x78 + 8700 x79 + 7200 x8 + 3500 x80 + 6100 x81 + 8700 x82
 + 12200 x83 + 3500 x84 + 4400 x85 + 6700 x86 + 3500 x87 + 6100 x88
 + 10300 x89 + 7200 x9 + 3600 x90 + 4900 x91 + 6900 x92 + 4100 x93 + 3500 x94
 + 4000 x95 + 3900 x96 + 4900 x97 + 5100 x98 + 3500 x99 <= 60000
Binaries
x0
x1
x10
x100
x101
x102
x103
x104
x105
x106
x107
x108
x109
x11
x110
x111
x112
x113
x114
x115
x116
x117
x118
x119
x12
x120
x121
x122
x123
x124
x125
x126
x127
x128
x129
x13
x130
x131
x132
x133
x134
x135
x136
x14
x15
x16
x17
x18
x19
x2
x20
x21
x22
x23
x24
x25
x26
x27
x28
x29
x3
x30
x31
x32
x33
x34
x35
x36
x37
x38
x39
x4
x40
x41
x42
x43
x44
x45
x46
x47
x48
x49
x5
x50
x51
x52
x53
x54
x55
x56
x57
x58
x59
x6
x60
x61
x62
x63
x64
x65
x66
x67
x68
x69
x7
x70
x71
x72
x73
x74
x75
x76
x77
x78
x79
x8
x80
x81
x82
x83
x84
x85
x86
x87
x88
x89
x9
x90
x91
x92
x93
x94
x95
x96
x97
x98
x99
End
